1 51 2
-974 -738 -746 -784 -981 -237 -904 -325 -271 -742 -538 -475 -752 -858 -626 -814 -227 -734 -941 -3 -821 -610 -781 -857 -144 -32 -549 -994 -522 -177 -944 -492 -541 -441 -605 -733 -519 -668 -915 -174 -473 -185 -935 -432 -672 -88 -308 -690 -703 -867 0 
-116 -306 -226 -125 -94 -857 -87 -665 -669 -221 -372 -549 -169 -101 -441 -204 -853 -299 -78 -999 -124 -366 -148 -96 -850 -967 -537 -70 -455 -845 -89 -434 -549 -626 -306 -267 -397 -275 -90 -764 -485 -876 -7 -636 -276 -897 -701 -252 -217 -101 0 
1120 956 909 913 1172 990 1014 1161 1050 1145 716 840 785 849 1216 986 914 1054 934 850 823 1073 884 874 919 1037 1191 977 1169 858 1071 922 1025 1124 743 1039 799 865 1050 830 791 1239 1102 1233 898 1075 1169 1101 727 892 1 
24537 
